
Gurobi 10.0.1 (linux64) logging started Thu 10 Aug 2023 08:19:23 AM CDT

Set parameter LogFile to value "/home/dlcole3/graph_abstraction/plasmoexamples/SHP_serial/SHP_reserve_requirements/gurobi_logs/logfile1.log"
Set parameter NodefileStart to value 0.0005
Set parameter TimeLimit to value 36000
Gurobi Optimizer version 10.0.1 build v10.0.1rc0 (linux64)

CPU model: Intel(R) Xeon(R) CPU E5-2698 v4 @ 2.20GHz, instruction set [SSE2|AVX|AVX2]
Thread count: 40 physical cores, 80 logical processors, using up to 4 threads


Warning: excessive time spent in model updates.
Consider calling update less frequently.

Optimize a model with 1103809 rows, 641709 columns and 4638071 nonzeros
Model fingerprint: 0xcd858a4f
Variable types: 599982 continuous, 41727 integer (41727 binary)
Coefficient statistics:
  Matrix range     [5e-02, 2e+04]
  Objective range  [2e-01, 8e+04]
  Bounds range     [5e-02, 2e+04]
  RHS range        [4e-19, 7e+03]
Presolve removed 267359 rows and 124002 columns (presolve time = 5s) ...
Presolve removed 274614 rows and 124765 columns (presolve time = 10s) ...
Presolve removed 276587 rows and 131098 columns (presolve time = 15s) ...
Presolve removed 283077 rows and 131276 columns (presolve time = 20s) ...
Presolve removed 283147 rows and 131306 columns (presolve time = 25s) ...
Presolve removed 283187 rows and 131356 columns (presolve time = 30s) ...
Presolve removed 283187 rows and 131356 columns (presolve time = 35s) ...
Presolve removed 283487 rows and 131376 columns (presolve time = 40s) ...
Sparsify removed 173243 nonzeros (4%)
Presolve removed 283487 rows and 128672 columns
Presolve time: 43.98s
Presolved: 820322 rows, 513037 columns, 3972850 nonzeros
Variable types: 477775 continuous, 35262 integer (35142 binary)

Deterministic concurrent LP optimizer: primal simplex, dual simplex, and barrier
Showing barrier log only...

Root barrier log...

Elapsed ordering time = 5s
Elapsed ordering time = 10s
Elapsed ordering time = 13s
Elapsed ordering time = 15s
Elapsed ordering time = 20s
Elapsed ordering time = 22s
Elapsed ordering time = 25s
Elapsed ordering time = 31s
Elapsed ordering time = 35s
Elapsed ordering time = 40s
Elapsed ordering time = 42s
Elapsed ordering time = 45s
Elapsed ordering time = 50s
Ordering time: 51.17s

Barrier statistics:
 Dense cols : 130
 AA' NZ     : 2.481e+07
 Factor NZ  : 4.029e+08 (roughly 4.0 GB of memory)
 Factor Ops : 2.230e+12 (roughly 80 seconds per iteration)
 Threads    : 1

                  Objective                Residual
Iter       Primal          Dual         Primal    Dual     Compl     Time
   0  -2.13444427e+11 -1.80450772e+13  1.25e+04 6.73e+03  1.17e+08   156s
   1  -1.32003944e+11 -1.19419624e+13  7.83e+03 5.38e+04  6.32e+07   225s
   2  -2.80995891e+10 -6.38132766e+12  1.83e+03 7.90e+02  1.69e+07   322s
   3  -4.98210048e+09 -2.26133747e+12  5.42e+02 9.60e+02  4.81e+06   426s
   4   3.25296564e+09 -8.63412055e+11  9.21e+01 2.53e+01  1.01e+06   528s
   5   4.60304428e+09 -3.05475027e+11  2.48e+01 3.39e+02  2.74e+05   641s
   6   4.25904540e+09 -9.67746795e+10  8.47e+00 6.18e+01  7.70e+04   764s
   7   2.54547149e+09 -3.15152565e+10  2.27e+00 1.44e+01  2.23e+04   888s
   8   7.33555637e+08 -7.45830933e+09  5.60e-01 4.34e+00  5.04e+03  1009s
   9   8.74530964e+07 -6.24396113e+08  3.35e-04 2.00e-01  4.15e+02  1093s
  10   6.53781332e+07 -5.15257419e+07  1.06e-05 1.85e-02  6.82e+01  1182s
  11   5.04825419e+07  1.17860107e+07  2.44e-06 5.36e-03  2.26e+01  1271s
  12   4.61603728e+07  2.58326207e+07  1.22e-06 2.65e-03  1.19e+01  1353s
  13   4.30405911e+07  3.37269497e+07  5.67e-07 1.04e-03  5.43e+00  1436s
  14   4.12201929e+07  3.67356258e+07  2.70e-07 4.39e-04  2.62e+00  1517s
  15   4.00818388e+07  3.86680006e+07  1.21e-07 8.37e-05  8.25e-01  1609s
  16   3.98513781e+07  3.88662488e+07  9.66e-08 5.32e-05  5.75e-01  1690s
  17   3.96061450e+07  3.89950322e+07  6.22e-08 3.27e-05  3.56e-01  1774s
  18   3.94430138e+07  3.90705916e+07  4.03e-08 2.04e-05  2.17e-01  1858s
  19   3.93470362e+07  3.91230492e+07  2.73e-08 1.15e-05  1.31e-01  1945s
  20   3.92947561e+07  3.91505143e+07  1.93e-08 6.97e-06  8.41e-02  2033s
  21   3.92497443e+07  3.91702104e+07  3.90e-07 3.65e-06  4.64e-02  2120s
  22   3.92241805e+07  3.91780475e+07  2.54e-07 2.29e-06  2.69e-02  2225s
  23   3.92084002e+07  3.91866511e+07  5.60e-07 8.83e-07  1.27e-02  2397s
  24   3.91984856e+07  3.91905056e+07  3.56e-07 2.81e-07  4.66e-03  2579s
  25   3.91953069e+07  3.91913572e+07  1.92e-07 1.51e-07  2.30e-03  2716s
  26   3.91945197e+07  3.91919385e+07  1.97e-07 6.77e-08  1.51e-03  2829s
  27   3.91936815e+07  3.91921304e+07  1.26e-07 4.30e-08  9.05e-04  2962s
  28   3.91929832e+07  3.91923403e+07  7.80e-08 3.68e-08  3.75e-04  3119s
  29   3.91928190e+07  3.91924346e+07  6.08e-08 2.61e-08  2.24e-04  3219s
  30   3.91927446e+07  3.91924529e+07  5.03e-08 2.19e-08  1.70e-04  3304s
  31   3.91926553e+07  3.91924556e+07  7.12e-08 2.64e-08  1.16e-04  3399s
  32   3.91925892e+07  3.91924739e+07  6.65e-08 2.46e-08  6.73e-05  3499s
  33   3.91925674e+07  3.91924766e+07  5.21e-08 2.03e-08  5.30e-05  3588s
  34   3.91925207e+07  3.91924786e+07  7.27e-05 2.46e-08  2.28e-05  3686s
  35   3.91925157e+07  3.91924789e+07  6.31e-05 2.56e-08  1.97e-05  3767s
  36   3.91925138e+07  3.91924790e+07  6.20e-05 3.47e-08  1.93e-05  3842s
  37   3.91925053e+07  3.91924791e+07  1.20e-04 2.80e-08  1.60e-05  3918s
  38   3.91924949e+07  3.91924794e+07  8.00e-05 2.66e-08  1.03e-05  4000s
  39   3.91924886e+07  3.91924797e+07  8.25e-05 3.14e-08  8.50e-06  4077s
  40   3.91924854e+07  3.91924798e+07  4.94e-05 2.55e-08  5.20e-06  4152s
  41   3.91924878e+07  3.91924799e+07  9.02e-05 7.53e-08  3.86e-06  4232s
  42   3.91924837e+07  3.91924799e+07  9.89e-05 4.69e-08  2.26e-06  4313s
  43   3.91924884e+07  3.91924800e+07  1.23e-04 2.71e-08  1.53e-06  4393s
  44   3.91924851e+07  3.91924800e+07  8.44e-05 2.02e-08  1.18e-06  4472s
  45   3.91924829e+07  3.91924800e+07  9.39e-05 3.54e-08  9.97e-07  4551s
  46   3.91924867e+07  3.91924801e+07  7.16e-05 1.71e-08  6.74e-07  4633s
  47   3.91924846e+07  3.91924801e+07  7.72e-05 7.67e-08  5.66e-07  4712s
  48   3.91924854e+07  3.91924801e+07  1.02e-04 2.57e-08  4.25e-07  4789s
  49   3.91924813e+07  3.91924801e+07  1.14e-04 6.15e-08  2.87e-07  4867s
  50   3.91924802e+07  3.91924801e+07  2.31e-04 2.18e-08  2.74e-07  4944s
  51   3.91924795e+07  3.91924801e+07  1.80e-04 8.91e-08  1.97e-07  5021s
  52   3.91924839e+07  3.91924801e+07  1.88e-04 1.91e-08  1.55e-07  5098s
  53   3.91924840e+07  3.91924801e+07  1.48e-04 2.30e-08  1.19e-07  5176s
  54   3.91924723e+07  3.91924801e+07  1.43e-04 2.10e-08  1.14e-07  5253s
  55   3.91924736e+07  3.91924801e+07  1.32e-04 2.57e-08  1.06e-07  5331s
  56   3.91924780e+07  3.91924801e+07  1.01e-04 2.80e-08  8.98e-08  5410s

Barrier performed 56 iterations in 5410.21 seconds (4121.98 work units)
Barrier solve interrupted - model solved by another algorithm

Concurrent spin time: 2225.94s (can be avoided by choosing Method=3)

Solved with dual simplex

Root relaxation: objective 3.919248e+07, 629848 iterations, 5363.07 seconds (4133.59 work units)

    Nodes    |    Current Node    |     Objective Bounds      |     Work
 Expl Unexpl |  Obj  Depth IntInf | Incumbent    BestBd   Gap | It/Node Time

     0     0 3.9192e+07    0  703          - 3.9192e+07      -     - 5435s
     0     0 3.9200e+07    0  663          - 3.9200e+07      -     - 5580s
     0     0 3.9200e+07    0  661          - 3.9200e+07      -     - 5581s
     0     0 3.9201e+07    0  638          - 3.9201e+07      -     - 5628s
     0     0 3.9201e+07    0  685          - 3.9201e+07      -     - 5636s
     0     0 3.9201e+07    0  673          - 3.9201e+07      -     - 5641s
     0     0 3.9203e+07    0  670          - 3.9203e+07      -     - 5678s
     0     0 3.9203e+07    0  663          - 3.9203e+07      -     - 5680s
     0     0 3.9203e+07    0  676          - 3.9203e+07      -     - 5728s
     0     0 3.9203e+07    0  680          - 3.9203e+07      -     - 5732s
     0     0 3.9203e+07    0  654          - 3.9203e+07      -     - 5778s
     0     0 3.9203e+07    0  651          - 3.9203e+07      -     - 5779s
     0     0 3.9203e+07    0  722          - 3.9203e+07      -     - 5826s
     0     0 3.9203e+07    0  717          - 3.9203e+07      -     - 5829s
     0     0 3.9204e+07    0  749          - 3.9204e+07      -     - 5869s
     0     0 3.9204e+07    0  804          - 3.9204e+07      -     - 5883s
     0     0 3.9204e+07    0  806          - 3.9204e+07      -     - 5887s
     0     0 3.9204e+07    0  789          - 3.9204e+07      -     - 5916s
     0     0 3.9204e+07    0  813          - 3.9204e+07      -     - 5926s
     0     0 3.9204e+07    0  824          - 3.9204e+07      -     - 5930s
     0     0 3.9204e+07    0  824          - 3.9204e+07      -     - 5933s
     0     0 3.9205e+07    0  873          - 3.9205e+07      -     - 5963s
     0     0 3.9205e+07    0  864          - 3.9205e+07      -     - 6019s
     0     0 3.9205e+07    0  858          - 3.9205e+07      -     - 6023s
     0     0 3.9205e+07    0  892          - 3.9205e+07      -     - 6051s
     0     0 3.9205e+07    0  894          - 3.9205e+07      -     - 6054s
     0     0 3.9205e+07    0  891          - 3.9205e+07      -     - 6090s
     0     0 3.9205e+07    0  901          - 3.9205e+07      -     - 6119s
     0     0 3.9205e+07    0  899          - 3.9205e+07      -     - 6145s
     0     0 3.9205e+07    0  918          - 3.9205e+07      -     - 6172s
     0     0 3.9205e+07    0  922          - 3.9205e+07      -     - 6210s
     0     0 3.9205e+07    0  922          - 3.9205e+07      -     - 6213s
     0     0 3.9205e+07    0  924          - 3.9205e+07      -     - 6238s
     0     0 3.9205e+07    0  930          - 3.9205e+07      -     - 6270s
     0     0 3.9205e+07    0  932          - 3.9205e+07      -     - 6272s
     0     0 3.9205e+07    0  927          - 3.9205e+07      -     - 6296s
     0     0 3.9205e+07    0  929          - 3.9205e+07      -     - 6340s
     0     0 3.9205e+07    0  934          - 3.9205e+07      -     - 6365s
     0     0 3.9205e+07    0  935          - 3.9205e+07      -     - 6401s
     0     0 3.9206e+07    0  903          - 3.9206e+07      -     - 6428s
     0     0 3.9206e+07    0  897          - 3.9206e+07      -     - 6429s
     0     0 3.9206e+07    0  900          - 3.9206e+07      -     - 6454s
     0     0 3.9206e+07    0  896          - 3.9206e+07      -     - 6455s
     0     0 3.9206e+07    0  906          - 3.9206e+07      -     - 6480s
     0     0 3.9206e+07    0  907          - 3.9206e+07      -     - 6522s
     0     0 3.9206e+07    0  910          - 3.9206e+07      -     - 6525s
     0     0 3.9206e+07    0  914          - 3.9206e+07      -     - 6550s
     0     0 3.9206e+07    0  952          - 3.9206e+07      -     - 6594s
     0     0 3.9206e+07    0  949          - 3.9206e+07      -     - 6620s
     0     0 3.9206e+07    0  951          - 3.9206e+07      -     - 6657s
     0     0 3.9206e+07    0  885          - 3.9206e+07      -     - 6681s
     0     0 3.9206e+07    0  905          - 3.9206e+07      -     - 6734s
     0     0 3.9206e+07    0  905          - 3.9206e+07      -     - 6736s
     0     0 3.9206e+07    0  841          - 3.9206e+07      -     - 6761s
     0     0 3.9207e+07    0  844          - 3.9207e+07      -     - 6801s
     0     0 3.9207e+07    0  844          - 3.9207e+07      -     - 6803s
     0     0 3.9207e+07    0  859          - 3.9207e+07      -     - 6828s
     0     0 3.9207e+07    0  859          - 3.9207e+07      -     - 6872s
     0     0 3.9207e+07    0  848          - 3.9207e+07      -     - 6896s
     0     0 3.9207e+07    0  875          - 3.9207e+07      -     - 6947s
     0     0 3.9207e+07    0  877          - 3.9207e+07      -     - 6949s
     0     0 3.9207e+07    0  877          - 3.9207e+07      -     - 6952s
     0     0 3.9207e+07    0  886          - 3.9207e+07      -     - 6976s
     0     0 3.9207e+07    0  890          - 3.9207e+07      -     - 6983s
     0     0 3.9207e+07    0  890          - 3.9207e+07      -     - 6985s
     0     0 3.9207e+07    0  902          - 3.9207e+07      -     - 7009s
     0     0 3.9207e+07    0  902          - 3.9207e+07      -     - 7016s
     0     0 3.9207e+07    0  912          - 3.9207e+07      -     - 7041s
     0     0 3.9207e+07    0  902          - 3.9207e+07      -     - 7042s
     0     0 3.9207e+07    0  902          - 3.9207e+07      -     - 7047s
     0     0 3.9208e+07    0  908          - 3.9208e+07      -     - 7071s
     0     0 3.9208e+07    0  908          - 3.9208e+07      -     - 7078s
     0     0 3.9208e+07    0  911          - 3.9208e+07      -     - 7102s
     0     0 3.9208e+07    0  911          - 3.9208e+07      -     - 7125s
     0     0 3.9208e+07    0  885          - 3.9208e+07      -     - 7150s
     0     0 3.9208e+07    0  888          - 3.9208e+07      -     - 7153s
     0     0 3.9208e+07    0  890          - 3.9208e+07      -     - 7176s
     0     0 3.9208e+07    0  893          - 3.9208e+07      -     - 7182s
     0     0 3.9208e+07    0  890          - 3.9208e+07      -     - 7206s
H    0     0                    9.164390e+09 3.9208e+07   100%     - 7208s
     0     0 3.9208e+07    0  890 9.1644e+09 3.9208e+07   100%     - 7218s
H    0     0                    8.974707e+09 3.9208e+07   100%     - 7267s
     0     2 3.9208e+07    0  890 8.9747e+09 3.9208e+07   100%     - 7289s
     1     4 3.9350e+07    1  782 8.9747e+09 3.9208e+07   100% 40885 7451s
     3     8 3.9351e+07    2  780 8.9747e+09 3.9252e+07   100% 22178 7665s
     7    12 3.9353e+07    3  794 8.9747e+09 3.9328e+07   100% 20964 7716s
    11    16 3.9355e+07    3  834 8.9747e+09 3.9328e+07   100% 14679 7777s
    15    20 3.9359e+07    4  791 8.9747e+09 3.9332e+07   100% 13065 7915s
    19    24 3.9357e+07    4  815 8.9747e+09 3.9332e+07   100% 11985 7947s
    23    28 3.9388e+07    5  765 8.9747e+09 3.9332e+07   100% 10461 8009s
H   27    31                    8.728760e+09 3.9332e+07   100%  9285 8178s
    31    35 3.9363e+07    6  817 8.7288e+09 3.9332e+07   100%  8688 8216s
    36    40 3.9369e+07    6  779 8.7288e+09 3.9332e+07   100%  8156 8299s
    43    45 3.9365e+07    7  785 8.7288e+09 3.9332e+07   100%  7111 8369s
    50    54 3.9365e+07    8  828 8.7288e+09 3.9332e+07   100%  6354 8427s
    59    59 3.9366e+07   10  816 8.7288e+09 3.9332e+07   100%  5603 8464s
    61    59 3.9354e+07   10  946 8.7288e+09 3.9332e+07   100%  5448 8465s
    65    70 3.9366e+07   11  819 8.7288e+09 3.9332e+07   100%  5133 8522s
    76    76 3.9367e+07   12  819 8.7288e+09 3.9332e+07   100%  4531 8591s
    87    83 3.9370e+07   13  806 8.7288e+09 3.9332e+07   100%  4075 8655s
    97    96 3.9370e+07   14  763 8.7288e+09 3.9332e+07   100%  3811 8746s
   111   102 3.9370e+07   15  791 8.7288e+09 3.9332e+07   100%  3435 8787s
H  121   106                    8.715953e+09 3.9332e+07   100%  3240 8914s
H  122   106                    8.709198e+09 3.9332e+07   100%  3225 8914s
   129   114 3.9371e+07   19  799 8.7092e+09 3.9332e+07   100%  3108 8974s
   144   129 3.9374e+07   20  773 8.7092e+09 3.9332e+07   100%  2860 9029s
   160   134 3.9375e+07   23  773 8.7092e+09 3.9332e+07   100%  2614 9157s
H  161   134                    8.685655e+09 3.9332e+07   100%  2598 9157s
H  162   134                    8.678786e+09 3.9332e+07   100%  2583 9157s
   166   142 3.9376e+07   24  771 8.6788e+09 3.9332e+07   100%  2548 9208s
   180   150 3.9377e+07   27  812 8.6788e+09 3.9332e+07   100%  2385 9287s
   192   155 3.9378e+07   29  747 8.6788e+09 3.9332e+07   100%  2294 9350s
   206   158 3.9378e+07   31  725 8.6788e+09 3.9332e+07   100%  2150 9414s
   223   162 3.9380e+07   36  664 8.6788e+09 3.9332e+07   100%  2011 9480s
   243   168 3.9381e+07   42  624 8.6788e+09 3.9332e+07   100%  1857 9558s
H  260   176                    8.577036e+09 3.9332e+07   100%  1772 9652s
H  265   176                    8.527822e+09 3.9332e+07   100%  1750 9652s
   274   185 3.9383e+07   49  545 8.5278e+09 3.9332e+07   100%  1701 9740s
H  303   190                    8.325743e+09 3.9332e+07   100%  1549 9860s
H  307   190                    8.295215e+09 3.9332e+07   100%  1535 9860s
H  308   190                    8.283614e+09 3.9332e+07   100%  1530 9860s
   312   201 3.9386e+07   59  478 8.2836e+09 3.9332e+07   100%  1516 9940s
   333   206 3.9386e+07   62  472 8.2836e+09 3.9332e+07   100%  1474 10025s
H  335   206                    7.977610e+09 3.9332e+07   100%  1466 10025s
H  339   206                    7.977169e+09 3.9332e+07   100%  1450 10025s
H  343   206                    7.957748e+09 3.9332e+07   100%  1436 10025s
   348   216 3.9387e+07   66  497 7.9577e+09 3.9332e+07   100%  1418 10118s
H  377   223                    7.518145e+09 3.9332e+07  99.5%  1342 10205s
   396   241 3.9389e+07   73  228 7.5181e+09 3.9332e+07  99.5%  1290 10292s
H  428   253                    7.041713e+09 3.9332e+07  99.4%  1234 10379s
Created node file directory './grbnodes1'
   449   284 3.9421e+07   81  611 7.0417e+09 3.9332e+07  99.4%  1183 10533s
H  473   284                    6.493573e+09 3.9332e+07  99.4%  1135 10534s
   500   327 3.9435e+07   91  151 6.4936e+09 3.9332e+07  99.4%  1084 10633s
   552   360 3.9436e+07   97   97 6.4936e+09 3.9332e+07  99.4%  1003 10744s
   590   380 3.9438e+07  105  163 6.4936e+09 3.9332e+07  99.4%   978 10830s
H  613   383                    6.101686e+09 3.9332e+07  99.4%   986 10994s
H  617   383                    6.052433e+09 3.9332e+07  99.4%   985 10994s
   619   446 3.9437e+07  112   69 6.0524e+09 3.9332e+07  99.4%   983 11106s
H  658   446                    3.957785e+07 3.9332e+07  0.62%   944 11107s

Cutting planes:
  Learned: 4
  Gomory: 54
  Implied bound: 166
  MIR: 279
  StrongCG: 2
  Flow cover: 1446
  RLT: 153
  Relax-and-lift: 31

Explored 685 nodes (1294322 simplex iterations) in 11107.57 seconds (13413.08 work units)
Thread count was 4 (of 80 available processors)

Solution count 10: 3.95778e+07 3.95778e+07 6.05243e+09 ... 7.97761e+09

Optimal solution found (tolerance 5.00e-02)
Best objective 3.957784552339e+07, best bound 3.933247392813e+07, gap 0.6200%

User-callback calls 1336582, time in user-callback 4.31 sec
